nNurses = 107;
nHours = 30;
minHours = 9;
maxHours = 11;
maxConsec = 11;
maxPresence = 16;
demand = [29, 28, 23, 24, 27, 24, 28, 28, 24, 24, 20, 15, 18, 15, 20, 21, 23, 27, 29, 26, 22, 27, 24, 24, 21, 26, 26, 25, 24, 26];
